/*********************************************
 * OPL 12.10.0.0 Data
 * Author: Thomas
 * Creation Date: 4 mai 2020 at 14:22:16
 *********************************************/

 requiredStaff = [5, 7, 7, 10, 16, 18, 12];
 
 daysWorked = [5, 2];
 
 salaryPerDay = [100, 150];